data/solutions/recovery/wellformed/moderate/binding/wellformed_moderate_instance64/71.sol
Elapsed time: 0.02
Upper bound: 5144.0
Planning weighted value: 134013.0
C[0]=5144.0
C[1]=4901.0
C[2]=4748.0
C[3]=4651.0
C[4]=0.0
y[0]=0
y[1]=0
y[2]=1
y[3]=1
y[4]=1
y[5]=2
y[6]=2
y[7]=0
y[8]=1
y[9]=0
y[10]=1
y[11]=0
y[12]=1
y[13]=1
y[14]=1
y[15]=0
y[16]=0
y[17]=1
y[18]=2
y[19]=2
y[20]=3
y[21]=0
y[22]=1
y[23]=3
y[24]=3
y[25]=3
y[26]=3
y[27]=1
y[28]=2
y[29]=1
y[30]=1
y[31]=0
y[32]=1
y[33]=1
y[34]=1
y[35]=1
y[36]=1
y[37]=0
y[38]=2
y[39]=2
y[40]=3
