data/solutions/recovery/wellformed/moderate/binding/wellformed_moderate_instance64/71.log

Log started (V12.6.3.0) Fri Apr 20 17:49:39 2018

New value for default parallel thread count: 1

Problem '/tmp/tmptoAxBb.pyomo.lp' read.
Read time = 0.00 sec. (0.09 ticks)

Problem name         : /tmp/tmptoAxBb.pyomo.lp
Objective sense      : Minimize
Variables            :     212  [Nneg: 1,  Binary: 205,  General Integer: 6]
Objective nonzeros   :       1
Linear constraints   :      94  [Less: 46,  Equal: 48]
  Nonzeros           :    6023
  RHS nonzeros       :      42

Variables            : Min LB: 0.000000         Max UB: 1.000000       
Objective nonzeros   : Min   : 1.000000         Max   : 1.000000       
Linear constraints   :
  Nonzeros           : Min   : 1.000000         Max   : 1963.000       
  RHS nonzeros       : Min   : 1.000000         Max   : 1.000000       
Tried aggregator 2 times.
MIP Presolve eliminated 80 rows and 183 columns.
Aggregator did 4 substitutions.
Reduced MIP has 10 rows, 25 columns, and 52 nonzeros.
Reduced MIP has 24 binaries, 1 generals, 0 SOSs, and 0 indicators.
Presolve time = 0.00 sec. (0.51 ticks)
Found incumbent of value 9340.000000 after 0.00 sec. (0.68 ticks)
Probing time = 0.00 sec. (0.01 ticks)
Cover probing fixed 0 vars, tightened 1 bounds.
Tried aggregator 1 time.
Reduced MIP has 10 rows, 25 columns, and 52 nonzeros.
Reduced MIP has 24 binaries, 1 generals, 0 SOSs, and 0 indicators.
Presolve time = 0.00 sec. (0.03 ticks)
Probing time = 0.00 sec. (0.01 ticks)
Clique table members: 6.
MIP emphasis: balance optimality and feasibility.
MIP search method: dynamic search.
Parallel mode: none, using 1 thread.
Root relaxation solution time = 0.00 sec. (0.02 ticks)

        Nodes                                         Cuts/
   Node  Left     Objective  IInf  Best Integer    Best Bound    ItCnt     Gap

*     0+    0                         9340.0000     4651.0000            50.20%
      0     0     4861.0000     6     9340.0000     4861.0000        6   47.96%
*     0+    0                         5481.0000     4861.0000            11.31%
      0     0     4861.0000     5     5481.0000       Cuts: 4       17   11.31%
*     0+    0                         5193.0000     4861.0000             6.39%
      0     0     4931.0000     6     5193.0000       Cuts: 4       26    5.05%

Repeating presolve.
Tried aggregator 1 time.
MIP Presolve eliminated 2 rows and 9 columns.
MIP Presolve modified 5 coefficients.
Reduced MIP has 8 rows, 16 columns, and 33 nonzeros.
Reduced MIP has 15 binaries, 1 generals, 0 SOSs, and 0 indicators.
Presolve time = 0.00 sec. (0.03 ticks)
Probing time = 0.00 sec. (0.01 ticks)
Tried aggregator 1 time.
Reduced MIP has 8 rows, 16 columns, and 33 nonzeros.
Reduced MIP has 15 binaries, 1 generals, 0 SOSs, and 0 indicators.
Presolve time = 0.00 sec. (0.02 ticks)
Represolve time = 0.00 sec. (0.11 ticks)
Probing time = 0.00 sec. (0.01 ticks)
Clique table members: 8.
MIP emphasis: balance optimality and feasibility.
MIP search method: dynamic search.
Parallel mode: none, using 1 thread.
Root relaxation solution time = 0.00 sec. (0.02 ticks)

        Nodes                                         Cuts/
   Node  Left     Objective  IInf  Best Integer    Best Bound    ItCnt     Gap

*     0+    0                         5193.0000     4931.0000             5.05%
      0     0     4931.0000     4     5193.0000     4931.0000       33    5.05%
*     0+    0                         5144.0000     4931.0000             4.14%
      0     0        cutoff           5144.0000                     38    0.00%
Elapsed time = 0.00 sec. (1.37 ticks, tree = 0.01 MB, solutions = 4)

Cover cuts applied:  1
Mixed integer rounding cuts applied:  1
Lift and project cuts applied:  1

Root node processing (before b&c):
  Real time             =    0.00 sec. (1.38 ticks)
Sequential b&c:
  Real time             =    0.00 sec. (0.00 ticks)
                          ------------
Total (root+branch&cut) =    0.00 sec. (1.38 ticks)

Solution pool: 4 solutions saved.

MIP - Integer optimal solution:  Objective =  5.1440000000e+03
Solution time =    0.00 sec.  Iterations = 38  Nodes = 0
Deterministic time = 1.38 ticks  (280.68 ticks/sec)


Incumbent solution written to file '/tmp/tmpTAWgP0.cplex.sol'.

Log started (V12.6.3.0) Fri Apr 20 17:52:44 2018

New value for default parallel thread count: 1

Problem '/tmp/tmpcdZRxX.pyomo.lp' read.
Read time = 0.00 sec. (0.09 ticks)

Problem name         : /tmp/tmpcdZRxX.pyomo.lp
Objective sense      : Minimize
Variables            :     212  [Nneg: 1,  Binary: 205,  General Integer: 6]
Objective nonzeros   :       1
Linear constraints   :      94  [Less: 46,  Equal: 48]
  Nonzeros           :    6023
  RHS nonzeros       :      42

Variables            : Min LB: 0.000000         Max UB: 1.000000       
Objective nonzeros   : Min   : 1.000000         Max   : 1.000000       
Linear constraints   :
  Nonzeros           : Min   : 1.000000         Max   : 1963.000       
  RHS nonzeros       : Min   : 1.000000         Max   : 1.000000       
Tried aggregator 2 times.
MIP Presolve eliminated 80 rows and 183 columns.
Aggregator did 4 substitutions.
Reduced MIP has 10 rows, 25 columns, and 52 nonzeros.
Reduced MIP has 24 binaries, 1 generals, 0 SOSs, and 0 indicators.
Presolve time = 0.00 sec. (0.51 ticks)
Found incumbent of value 9340.000000 after 0.00 sec. (0.68 ticks)
Probing time = 0.00 sec. (0.01 ticks)
Cover probing fixed 0 vars, tightened 1 bounds.
Tried aggregator 1 time.
Reduced MIP has 10 rows, 25 columns, and 52 nonzeros.
Reduced MIP has 24 binaries, 1 generals, 0 SOSs, and 0 indicators.
Presolve time = 0.00 sec. (0.03 ticks)
Probing time = 0.00 sec. (0.01 ticks)
Clique table members: 6.
MIP emphasis: balance optimality and feasibility.
MIP search method: dynamic search.
Parallel mode: none, using 1 thread.
Root relaxation solution time = 0.00 sec. (0.02 ticks)

        Nodes                                         Cuts/
   Node  Left     Objective  IInf  Best Integer    Best Bound    ItCnt     Gap

*     0+    0                         9340.0000     4651.0000            50.20%
      0     0     4861.0000     6     9340.0000     4861.0000        6   47.96%
*     0+    0                         5481.0000     4861.0000            11.31%
      0     0     4861.0000     5     5481.0000       Cuts: 4       17   11.31%
*     0+    0                         5193.0000     4861.0000             6.39%
      0     0     4931.0000     6     5193.0000       Cuts: 4       26    5.05%

Repeating presolve.
Tried aggregator 1 time.
MIP Presolve eliminated 2 rows and 9 columns.
MIP Presolve modified 5 coefficients.
Reduced MIP has 8 rows, 16 columns, and 33 nonzeros.
Reduced MIP has 15 binaries, 1 generals, 0 SOSs, and 0 indicators.
Presolve time = 0.00 sec. (0.03 ticks)
Probing time = 0.00 sec. (0.01 ticks)
Tried aggregator 1 time.
Reduced MIP has 8 rows, 16 columns, and 33 nonzeros.
Reduced MIP has 15 binaries, 1 generals, 0 SOSs, and 0 indicators.
Presolve time = 0.00 sec. (0.02 ticks)
Represolve time = 0.00 sec. (0.11 ticks)
Probing time = 0.00 sec. (0.01 ticks)
Clique table members: 8.
MIP emphasis: balance optimality and feasibility.
MIP search method: dynamic search.
Parallel mode: none, using 1 thread.
Root relaxation solution time = 0.00 sec. (0.02 ticks)

        Nodes                                         Cuts/
   Node  Left     Objective  IInf  Best Integer    Best Bound    ItCnt     Gap

*     0+    0                         5193.0000     4931.0000             5.05%
      0     0     4931.0000     4     5193.0000     4931.0000       33    5.05%
*     0+    0                         5144.0000     4931.0000             4.14%
      0     0        cutoff           5144.0000                     38    0.00%
Elapsed time = 0.01 sec. (1.37 ticks, tree = 0.01 MB, solutions = 4)

Cover cuts applied:  1
Mixed integer rounding cuts applied:  1
Lift and project cuts applied:  1

Root node processing (before b&c):
  Real time             =    0.01 sec. (1.38 ticks)
Sequential b&c:
  Real time             =    0.00 sec. (0.00 ticks)
                          ------------
Total (root+branch&cut) =    0.01 sec. (1.38 ticks)

Solution pool: 4 solutions saved.

MIP - Integer optimal solution:  Objective =  5.1440000000e+03
Solution time =    0.01 sec.  Iterations = 38  Nodes = 0
Deterministic time = 1.38 ticks  (203.76 ticks/sec)


Incumbent solution written to file '/tmp/tmpUO7LMV.cplex.sol'.
